c WARNING: for repeatability, setting FPU to use double precision
d VARIABLES            211614       
d CONSTRAINTS          919995       
c ============================[ Problem Statistics ]=============================
c |                                                                             |
c |  Number of variables:        211614                                         |
c |  Number of clauses:          919995                                         |
c |  Parse time:                   0.15 s                                       |
c |                                                                             |
c ============================[ Search Statistics ]==============================
c | Conflicts |          ORIGINAL         |          LEARNT          | Progress |
c |           |    Vars  Clauses Literals |    Limit  Clauses Lit/Cl |          |
c ===============================================================================
c |       100 |  174549   825157  2001751 |   302557      100     11 | 17.515 % |
c |       250 |  174549   825157  2001751 |   332813      250      9 | 17.515 % |
c |       475 |  174549   825157  2001751 |   366094      475     16 | 17.515 % |
c |       812 |  174549   825157  2001751 |   402704      812     39 | 17.515 % |
c |      1318 |  174549   825157  2001751 |   442974     1318     55 | 17.515 % |
c |      2077 |  174549   825157  2001751 |   487271     2077     56 | 17.515 % |
c |      3216 |  174549   825157  2001751 |   535999     3216     99 | 17.515 % |
c |      4924 |  174549   825157  2001751 |   589599     4924     98 | 17.515 % |
c |      7486 |  174549   825157  2001751 |   648559     7486     91 | 17.515 % |
c |     11330 |  174549   825157  2001751 |   713414    11330     99 | 17.515 % |
c |     17096 |  174549   825157  2001751 |   784756    17096     99 | 17.515 % |
c |     25745 |  174549   825157  2001751 |   863232    25745    114 | 17.515 % |
c |     38719 |  174549   825157  2001751 |   949555    38719    136 | 17.515 % |
c |     58180 |  174549   825157  2001751 |  1044510    58180    136 | 17.515 % |
c |     87372 |  174549   825157  2001751 |  1148961    87372    145 | 17.515 % |
c |    131161 |  174549   825157  2001751 |  1263858   131161    149 | 17.515 % |
c |    196845 |  174549   825157  2001751 |  1390243   196845    153 | 17.515 % |
c |    295371 |  174549   825157  2001751 |  1529268   295371    160 | 17.515 % |
c |    443160 |  174549   825157  2001751 |  1682195   443160    158 | 17.515 % |
c |    664843 |  174549   825157  2001751 |  1850414   664843    169 | 17.515 % |
c |    997368 |  174549   825157  2001751 |  2035456   997368    159 | 17.515 % |
c |   1496156 |  174549   825157  2001751 |  2239001  1496156    178 | 17.515 % |
c ===============================================================================
c restarts              : 3012
c conflicts             : 1526671        (852 /sec)
c decisions             : 4899338        (0.00 % random) (2733 /sec)
c propagations          : 4469152521     (2492828 /sec)
c conflict literals     : 270362680      (31.32 % deleted)
d RESTARTS             3012
d FAILURES             1526671      
d NODES                4899338      
d BACKTRACKS           4899338      
d PROPAGATIONS         4469152521   
d NOGOODSIZE           177.09 
d MEMORY               1600.00 
d TIME                 1792.8 

s UNKNOWN
